! wB97X-D3 def2-TZVP TightSCF Smallprint DEFGRID3

! OptTS Freq

! CPCM(Acetonitrile) 

%pal nprocs 16 end

%maxcore 8000

*xyzfile 0 1 calc_centroid_0005.xyz  