! wB97X-D3 def2-TZVP DEFGRID3 TightSCF Smallprint

! OptTS Freq

! CPCM(Acetonitrile) 

%pal nprocs 16 end

%maxcore 8000

%geom
Calc_Hess True
Recalc_Hess 10
end

*xyzfile 0 1 preoptimization.xyz  
