! wB97X-D3 def2-TZVP TightSCF Smallprint DEFGRID3

! Opt Freq

! CPCM(THF) 


%pal nprocs 8 end

%maxcore 8000

*xyzfile 0 1 optimization.xyz  